# Solution for model MIP
# Objective value = -1.2425786894563732e+03
team_t0_s0 1
team_t1_s0 1
team_t2_s0 1
team_t3_s0 1
team_t4_s0 1
team_t5_s0 1
team_t6_s0 1
team_t0_s1 1
team_t1_s1 1
team_t2_s1 1
team_t3_s1 1
team_t4_s1 1
team_t5_s1 1
team_t6_s1 1
q_s0 4.7257161034484974e-01
q_s1 5.2742838965515026e-01
theta -1.1440473175138536e+03
z_w0_k0_m0 5.7429928686541787e-01
z_w0_k0_m1 2.8925034650836923e-01
z_w0_k0_m2 2.9679976526869067e-01
z_w0_k1_m0 5.8644898748569874e-01
z_w0_k1_m1 3.3025507776656970e-01
z_w0_k1_m2 3.0241017224765016e-01
z_w0_k2_m0 3.4966070633662683e-01
z_w0_k2_m1 9.5568909433314109e-01
z_w0_k2_m2 1.0347653805329171e-01
z_w0_k3_m0 3.2226938315170672e-01
z_w0_k3_m1 2.1440519736072394e-01
z_w0_k3_m2 1.4196321456180322e-01
z_w0_k4_m0 7.5722510679499655e-01
z_w0_k4_m1 4.0414202212820116e-01
z_w0_k4_m2 4.0468225900111920e-01
z_w0_k5_m0 3.4966070633662683e-01
z_w0_k5_m1 9.5568909433314109e-01
z_w0_k5_m2 1.0347653805329171e-01
z_w0_k6_m0 3.4966070633662683e-01
z_w0_k6_m1 9.5568909433314109e-01
z_w0_k6_m2 1.0347653805329171e-01
z_w0_k7_m0 3.4966070633662683e-01
z_w0_k7_m1 9.5568909433314109e-01
z_w0_k7_m2 1.0347653805329171e-01
z_w0_k8_m0 1.5503282942452676e-01
z_w0_k8_m1 1.3993926888799918e-01
z_w0_k8_m2 5.5915801691555113e-02
z_w0_k9_m0 3.4966070633662683e-01
z_w0_k9_m1 9.5568909433314109e-01
z_w0_k9_m2 1.0347653805329171e-01
z_w1_k0_m0 3.4966070633662683e-01
z_w1_k0_m1 9.5568909433314109e-01
z_w1_k0_m2 1.0347653805329171e-01
z_w1_k1_m0 3.4966070633662683e-01
z_w1_k1_m1 9.5568909433314109e-01
z_w1_k1_m2 1.0347653805329171e-01
z_w1_k2_m0 3.4966070633662683e-01
z_w1_k2_m1 9.5568909433314109e-01
z_w1_k2_m2 1.0347653805329171e-01
z_w1_k3_m0 3.4966070633662683e-01
z_w1_k3_m1 9.5568909433314109e-01
z_w1_k3_m2 1.0347653805329171e-01
z_w1_k4_m0 3.4966070633662683e-01
z_w1_k4_m1 9.5568909433314109e-01
z_w1_k4_m2 1.0347653805329171e-01
z_w1_k5_m0 5.0371836894677868e-01
z_w1_k5_m1 2.0985432845960300e-01
z_w1_k5_m2 2.4387548522385083e-01
z_w1_k6_m0 4.7389781603814840e-01
z_w1_k6_m1 2.0113796607832382e-01
z_w1_k6_m2 2.2833263454417291e-01
z_w1_k7_m0 0
z_w1_k7_m1 0
z_w1_k7_m2 0
z_w1_k8_m0 3.4966070633662683e-01
z_w1_k8_m1 9.5568909433314109e-01
z_w1_k8_m2 1.0347653805329171e-01
z_w1_k9_m0 3.4966070633662683e-01
z_w1_k9_m1 9.5568909433314109e-01
z_w1_k9_m2 1.0347653805329171e-01
z_w2_k0_m0 3.4966070633662683e-01
z_w2_k0_m1 9.5568909433314109e-01
z_w2_k0_m2 1.0347653805329171e-01
z_w2_k1_m0 3.4966070633662683e-01
z_w2_k1_m1 9.5568909433314109e-01
z_w2_k1_m2 1.0347653805329171e-01
z_w2_k2_m0 5.4979834117340554e-01
z_w2_k2_m1 1.6070263998715675e-01
z_w2_k2_m2 2.8656187385176657e-01
z_w2_k3_m0 3.4966070633662683e-01
z_w2_k3_m1 9.5568909433314109e-01
z_w2_k3_m2 1.0347653805329171e-01
z_w2_k4_m0 3.4966070633662683e-01
z_w2_k4_m1 9.5568909433314109e-01
z_w2_k4_m2 1.0347653805329171e-01
z_w2_k5_m0 3.4966070633662683e-01
z_w2_k5_m1 9.5568909433314109e-01
z_w2_k5_m2 1.0347653805329171e-01
z_w2_k6_m0 3.4966070633662683e-01
z_w2_k6_m1 9.5568909433314109e-01
z_w2_k6_m2 1.0347653805329171e-01
z_w2_k7_m0 3.4966070633662683e-01
z_w2_k7_m1 9.5568909433314109e-01
z_w2_k7_m2 1.0347653805329171e-01
z_w2_k8_m0 3.4966070633662683e-01
z_w2_k8_m1 9.5568909433314109e-01
z_w2_k8_m2 1.0347653805329171e-01
z_w2_k9_m0 3.3006913315971304e-01
z_w2_k9_m1 9.6477157358880794e-02
z_w2_k9_m2 1.7203622167540081e-01
pi_w0_t0_k0 0
pi_w0_t0_k1 4.7257161034484976e-02
pi_w0_t0_k2 1
pi_w0_t0_k3 0
pi_w0_t0_k4 3.0887033355872532e-03
pi_w0_t0_k5 1
pi_w0_t0_k6 1
pi_w0_t0_k7 1
pi_w0_t0_k8 1.8902864413793914e-02
pi_w0_t0_k9 1
pi_w0_t1_k0 2.0285707294428856e-02
pi_w0_t1_k1 0
pi_w0_t1_k2 0
pi_w0_t1_k3 0
pi_w0_t1_k4 0
pi_w0_t1_k5 0
pi_w0_t1_k6 0
pi_w0_t1_k7 0
pi_w0_t1_k8 0
pi_w0_t1_k9 0
pi_w0_t2_k0 5.3342873222813636e-01
pi_w0_t2_k1 4.7805728827587979e-01
pi_w0_t2_k2 0
pi_w0_t2_k3 8.6965850140706058e-01
pi_w0_t2_k4 2.3785986200134229e-01
pi_w0_t2_k5 0
pi_w0_t2_k6 0
pi_w0_t2_k7 0
pi_w0_t2_k8 6.6109713558620598e-01
pi_w0_t2_k9 0
pi_w0_t3_k0 0
pi_w0_t3_k1 0
pi_w0_t3_k2 0
pi_w0_t3_k3 0
pi_w0_t3_k4 0
pi_w0_t3_k5 0
pi_w0_t3_k6 0
pi_w0_t3_k7 0
pi_w0_t3_k8 0
pi_w0_t3_k9 0
pi_w0_t4_k0 0
pi_w0_t4_k1 0
pi_w0_t4_k2 0
pi_w0_t4_k3 0
pi_w0_t4_k4 7.7217583389681335e-02
pi_w0_t4_k5 0
pi_w0_t4_k6 0
pi_w0_t4_k7 0
pi_w0_t4_k8 0
pi_w0_t4_k9 0
pi_w0_t5_k0 4.4628556047743484e-01
pi_w0_t5_k1 4.7468555068963525e-01
pi_w0_t5_k2 0
pi_w0_t5_k3 1.3034149859293945e-01
pi_w0_t5_k4 6.8183385127338925e-01
pi_w0_t5_k5 0
pi_w0_t5_k6 0
pi_w0_t5_k7 0
pi_w0_t5_k8 0
pi_w0_t5_k9 0
pi_w0_t6_k0 0
pi_w0_t6_k1 0
pi_w0_t6_k2 0
pi_w0_t6_k3 0
pi_w0_t6_k4 0
pi_w0_t6_k5 0
pi_w0_t6_k6 0
pi_w0_t6_k7 0
pi_w0_t6_k8 0.32
pi_w0_t6_k9 0
pi_w1_t0_k0 1
pi_w1_t0_k1 1
pi_w1_t0_k2 1
pi_w1_t0_k3 1
pi_w1_t0_k4 1
pi_w1_t0_k5 0
pi_w1_t0_k6 0
pi_w1_t0_k7 0
pi_w1_t0_k8 1
pi_w1_t0_k9 1
pi_w1_t1_k0 0
pi_w1_t1_k1 0
pi_w1_t1_k2 0
pi_w1_t1_k3 0
pi_w1_t1_k4 0
pi_w1_t1_k5 3.9838885755815817e-01
pi_w1_t1_k6 3.6755569693488316e-01
pi_w1_t1_k7 0
pi_w1_t1_k8 0
pi_w1_t1_k9 0
pi_w1_t2_k0 0
pi_w1_t2_k1 0
pi_w1_t2_k2 0
pi_w1_t2_k3 0
pi_w1_t2_k4 0
pi_w1_t2_k5 5.2742838965515026e-01
pi_w1_t2_k6 5.2742838965515026e-01
pi_w1_t2_k7 0
pi_w1_t2_k8 0
pi_w1_t2_k9 0
pi_w1_t3_k0 0
pi_w1_t3_k1 0
pi_w1_t3_k2 0
pi_w1_t3_k3 0
pi_w1_t3_k4 0
pi_w1_t3_k5 0
pi_w1_t3_k6 0
pi_w1_t3_k7 0
pi_w1_t3_k8 0
pi_w1_t3_k9 0
pi_w1_t4_k0 0
pi_w1_t4_k1 0
pi_w1_t4_k2 0
pi_w1_t4_k3 0
pi_w1_t4_k4 0
pi_w1_t4_k5 0
pi_w1_t4_k6 0
pi_w1_t4_k7 0
pi_w1_t4_k8 0
pi_w1_t4_k9 0
pi_w1_t5_k0 0
pi_w1_t5_k1 0
pi_w1_t5_k2 0
pi_w1_t5_k3 0
pi_w1_t5_k4 0
pi_w1_t5_k5 0
pi_w1_t5_k6 0
pi_w1_t5_k7 0
pi_w1_t5_k8 0
pi_w1_t5_k9 0
pi_w1_t6_k0 0
pi_w1_t6_k1 0
pi_w1_t6_k2 0
pi_w1_t6_k3 0
pi_w1_t6_k4 0
pi_w1_t6_k5 7.4182752786691522e-02
pi_w1_t6_k6 1.0501591340996660e-01
pi_w1_t6_k7 1
pi_w1_t6_k8 0
pi_w1_t6_k9 0
pi_w2_t0_k0 1
pi_w2_t0_k1 1
pi_w2_t0_k2 0
pi_w2_t0_k3 1
pi_w2_t0_k4 1
pi_w2_t0_k5 1
pi_w2_t0_k6 1
pi_w2_t0_k7 1
pi_w2_t0_k8 1
pi_w2_t0_k9 0
pi_w2_t1_k0 0
pi_w2_t1_k1 0
pi_w2_t1_k2 5.6846768119124069e-01
pi_w2_t1_k3 0
pi_w2_t1_k4 0
pi_w2_t1_k5 0
pi_w2_t1_k6 0
pi_w2_t1_k7 0
pi_w2_t1_k8 0
pi_w2_t1_k9 3.4127719330627371e-01
pi_w2_t2_k0 0
pi_w2_t2_k1 0
pi_w2_t2_k2 0
pi_w2_t2_k3 0
pi_w2_t2_k4 0
pi_w2_t2_k5 0
pi_w2_t2_k6 0
pi_w2_t2_k7 0
pi_w2_t2_k8 0
pi_w2_t2_k9 0
pi_w2_t3_k0 0
pi_w2_t3_k1 0
pi_w2_t3_k2 0
pi_w2_t3_k3 0
pi_w2_t3_k4 0
pi_w2_t3_k5 0
pi_w2_t3_k6 0
pi_w2_t3_k7 0
pi_w2_t3_k8 0
pi_w2_t3_k9 0
pi_w2_t4_k0 0
pi_w2_t4_k1 0
pi_w2_t4_k2 0
pi_w2_t4_k3 0
pi_w2_t4_k4 0
pi_w2_t4_k5 0
pi_w2_t4_k6 0
pi_w2_t4_k7 0
pi_w2_t4_k8 0
pi_w2_t4_k9 0
pi_w2_t5_k0 0
pi_w2_t5_k1 0
pi_w2_t5_k2 0
pi_w2_t5_k3 0
pi_w2_t5_k4 0
pi_w2_t5_k5 0
pi_w2_t5_k6 0
pi_w2_t5_k7 0
pi_w2_t5_k8 0
pi_w2_t5_k9 0
pi_w2_t6_k0 0
pi_w2_t6_k1 0
pi_w2_t6_k2 4.3153231880875931e-01
pi_w2_t6_k3 0
pi_w2_t6_k4 0
pi_w2_t6_k5 0
pi_w2_t6_k6 0
pi_w2_t6_k7 0
pi_w2_t6_k8 0
pi_w2_t6_k9 6.5872280669372629e-01
n_w0_t0_k0 0
n_w0_t0_k1 4.7257161034484974e-01
n_w0_t0_k2 0
n_w0_t0_k3 0
n_w0_t0_k4 4.7257161034484974e-01
n_w0_t0_k5 0
n_w0_t0_k6 0
n_w0_t0_k7 0
n_w0_t0_k8 4.7257161034484785e-01
n_w0_t0_k9 0
n_w0_t1_k0 5.2742838965515026e-01
n_w0_t1_k1 0
n_w0_t1_k2 0
n_w0_t1_k3 0
n_w0_t1_k4 0
n_w0_t1_k5 0
n_w0_t1_k6 0
n_w0_t1_k7 0
n_w0_t1_k8 0
n_w0_t1_k9 0
n_w0_t2_k0 1.3869147037931546e+01
n_w0_t2_k1 4.7805728827587979e+00
n_w0_t2_k2 0
n_w0_t2_k3 1.5132057924482854e+02
n_w0_t2_k4 3.6392558886205371e+01
n_w0_t2_k5 0
n_w0_t2_k6 0
n_w0_t2_k7 0
n_w0_t2_k8 1.6527428389655149e+01
n_w0_t2_k9 0
n_w0_t3_k0 0
n_w0_t3_k1 0
n_w0_t3_k2 0
n_w0_t3_k3 0
n_w0_t3_k4 0
n_w0_t3_k5 0
n_w0_t3_k6 0
n_w0_t3_k7 0
n_w0_t3_k8 0
n_w0_t3_k9 0
n_w0_t4_k0 0
n_w0_t4_k1 0
n_w0_t4_k2 0
n_w0_t4_k3 0
n_w0_t4_k4 1.1814290258621245e+01
n_w0_t4_k5 0
n_w0_t4_k6 0
n_w0_t4_k7 0
n_w0_t4_k8 0
n_w0_t4_k9 0
n_w0_t5_k0 1.1603424572413306e+01
n_w0_t5_k1 4.7468555068963525e+00
n_w0_t5_k2 0
n_w0_t5_k3 2.2679420755171463e+01
n_w0_t5_k4 1.0432057924482855e+02
n_w0_t5_k5 0
n_w0_t5_k6 0
n_w0_t5_k7 0
n_w0_t5_k8 0
n_w0_t5_k9 0
n_w0_t6_k0 0
n_w0_t6_k1 0
n_w0_t6_k2 0
n_w0_t6_k3 0
n_w0_t6_k4 0
n_w0_t6_k5 0
n_w0_t6_k6 0
n_w0_t6_k7 0
n_w0_t6_k8 8
n_w0_t6_k9 0
n_w1_t0_k0 0
n_w1_t0_k1 0
n_w1_t0_k2 0
n_w1_t0_k3 0
n_w1_t0_k4 0
n_w1_t0_k5 0
n_w1_t0_k6 0
n_w1_t0_k7 0
n_w1_t0_k8 0
n_w1_t0_k9 0
n_w1_t1_k0 0
n_w1_t1_k1 0
n_w1_t1_k2 0
n_w1_t1_k3 0
n_w1_t1_k4 0
n_w1_t1_k5 6.8522883500003203e+01
n_w1_t1_k6 9.9240038172418448e+00
n_w1_t1_k7 0
n_w1_t1_k8 0
n_w1_t1_k9 0
n_w1_t2_k0 0
n_w1_t2_k1 0
n_w1_t2_k2 0
n_w1_t2_k3 0
n_w1_t2_k4 0
n_w1_t2_k5 9.0717683020685840e+01
n_w1_t2_k6 1.4240566520689057e+01
n_w1_t2_k7 0
n_w1_t2_k8 0
n_w1_t2_k9 0
n_w1_t3_k0 0
n_w1_t3_k1 0
n_w1_t3_k2 0
n_w1_t3_k3 0
n_w1_t3_k4 0
n_w1_t3_k5 0
n_w1_t3_k6 0
n_w1_t3_k7 0
n_w1_t3_k8 0
n_w1_t3_k9 0
n_w1_t4_k0 0
n_w1_t4_k1 0
n_w1_t4_k2 0
n_w1_t4_k3 0
n_w1_t4_k4 0
n_w1_t4_k5 0
n_w1_t4_k6 0
n_w1_t4_k7 0
n_w1_t4_k8 0
n_w1_t4_k9 0
n_w1_t5_k0 0
n_w1_t5_k1 0
n_w1_t5_k2 0
n_w1_t5_k3 0
n_w1_t5_k4 0
n_w1_t5_k5 0
n_w1_t5_k6 0
n_w1_t5_k7 0
n_w1_t5_k8 0
n_w1_t5_k9 0
n_w1_t6_k0 0
n_w1_t6_k1 0
n_w1_t6_k2 0
n_w1_t6_k3 0
n_w1_t6_k4 0
n_w1_t6_k5 1.2759433479310943e+01
n_w1_t6_k6 2.8354296620690982e+00
n_w1_t6_k7 13
n_w1_t6_k8 0
n_w1_t6_k9 0
n_w2_t0_k0 0
n_w2_t0_k1 0
n_w2_t0_k2 0
n_w2_t0_k3 0
n_w2_t0_k4 0
n_w2_t0_k5 0
n_w2_t0_k6 0
n_w2_t0_k7 0
n_w2_t0_k8 0
n_w2_t0_k9 0
n_w2_t1_k0 0
n_w2_t1_k1 0
n_w2_t1_k2 6.2531444931036475e+00
n_w2_t1_k3 0
n_w2_t1_k4 0
n_w2_t1_k5 0
n_w2_t1_k6 0
n_w2_t1_k7 0
n_w2_t1_k8 0
n_w2_t1_k9 5.8017122862066532e+00
n_w2_t2_k0 0
n_w2_t2_k1 0
n_w2_t2_k2 0
n_w2_t2_k3 0
n_w2_t2_k4 0
n_w2_t2_k5 0
n_w2_t2_k6 0
n_w2_t2_k7 0
n_w2_t2_k8 0
n_w2_t2_k9 0
n_w2_t3_k0 0
n_w2_t3_k1 0
n_w2_t3_k2 0
n_w2_t3_k3 0
n_w2_t3_k4 0
n_w2_t3_k5 0
n_w2_t3_k6 0
n_w2_t3_k7 0
n_w2_t3_k8 0
n_w2_t3_k9 0
n_w2_t4_k0 0
n_w2_t4_k1 0
n_w2_t4_k2 0
n_w2_t4_k3 0
n_w2_t4_k4 0
n_w2_t4_k5 0
n_w2_t4_k6 0
n_w2_t4_k7 0
n_w2_t4_k8 0
n_w2_t4_k9 0
n_w2_t5_k0 0
n_w2_t5_k1 0
n_w2_t5_k2 0
n_w2_t5_k3 0
n_w2_t5_k4 0
n_w2_t5_k5 0
n_w2_t5_k6 0
n_w2_t5_k7 0
n_w2_t5_k8 0
n_w2_t5_k9 0
n_w2_t6_k0 0
n_w2_t6_k1 0
n_w2_t6_k2 4.7468555068963525e+00
n_w2_t6_k3 0
n_w2_t6_k4 0
n_w2_t6_k5 0
n_w2_t6_k6 0
n_w2_t6_k7 0
n_w2_t6_k8 0
n_w2_t6_k9 1.1198287713793347e+01
ni_s0_w0_t0_k0 0
ni_s0_w0_t0_k1 1
ni_s0_w0_t0_k2 0
ni_s0_w0_t0_k3 0
ni_s0_w0_t0_k4 1
ni_s0_w0_t0_k5 0
ni_s0_w0_t0_k6 0
ni_s0_w0_t0_k7 0
ni_s0_w0_t0_k8 1
ni_s0_w0_t0_k9 0
ni_s0_w0_t1_k0 0
ni_s0_w0_t1_k1 0
ni_s0_w0_t1_k2 0
ni_s0_w0_t1_k3 0
ni_s0_w0_t1_k4 0
ni_s0_w0_t1_k5 0
ni_s0_w0_t1_k6 0
ni_s0_w0_t1_k7 0
ni_s0_w0_t1_k8 0
ni_s0_w0_t1_k9 0
ni_s0_w0_t2_k0 26
ni_s0_w0_t2_k1 9
ni_s0_w0_t2_k2 0
ni_s0_w0_t2_k3 174
ni_s0_w0_t2_k4 0
ni_s0_w0_t2_k5 0
ni_s0_w0_t2_k6 0
ni_s0_w0_t2_k7 0
ni_s0_w0_t2_k8 16
ni_s0_w0_t2_k9 0
ni_s0_w0_t3_k0 0
ni_s0_w0_t3_k1 0
ni_s0_w0_t3_k2 0
ni_s0_w0_t3_k3 0
ni_s0_w0_t3_k4 0
ni_s0_w0_t3_k5 0
ni_s0_w0_t3_k6 0
ni_s0_w0_t3_k7 0
ni_s0_w0_t3_k8 0
ni_s0_w0_t3_k9 0
ni_s0_w0_t4_k0 0
ni_s0_w0_t4_k1 0
ni_s0_w0_t4_k2 0
ni_s0_w0_t4_k3 0
ni_s0_w0_t4_k4 25
ni_s0_w0_t4_k5 0
ni_s0_w0_t4_k6 0
ni_s0_w0_t4_k7 0
ni_s0_w0_t4_k8 0
ni_s0_w0_t4_k9 0
ni_s0_w0_t5_k0 0
ni_s0_w0_t5_k1 0
ni_s0_w0_t5_k2 0
ni_s0_w0_t5_k3 0
ni_s0_w0_t5_k4 127
ni_s0_w0_t5_k5 0
ni_s0_w0_t5_k6 0
ni_s0_w0_t5_k7 0
ni_s0_w0_t5_k8 0
ni_s0_w0_t5_k9 0
ni_s0_w0_t6_k0 0
ni_s0_w0_t6_k1 0
ni_s0_w0_t6_k2 0
ni_s0_w0_t6_k3 0
ni_s0_w0_t6_k4 0
ni_s0_w0_t6_k5 0
ni_s0_w0_t6_k6 0
ni_s0_w0_t6_k7 0
ni_s0_w0_t6_k8 8
ni_s0_w0_t6_k9 0
ni_s0_w1_t0_k0 0
ni_s0_w1_t0_k1 0
ni_s0_w1_t0_k2 0
ni_s0_w1_t0_k3 0
ni_s0_w1_t0_k4 0
ni_s0_w1_t0_k5 0
ni_s0_w1_t0_k6 0
ni_s0_w1_t0_k7 0
ni_s0_w1_t0_k8 0
ni_s0_w1_t0_k9 0
ni_s0_w1_t1_k0 0
ni_s0_w1_t1_k1 0
ni_s0_w1_t1_k2 0
ni_s0_w1_t1_k3 0
ni_s0_w1_t1_k4 0
ni_s0_w1_t1_k5 145
ni_s0_w1_t1_k6 21
ni_s0_w1_t1_k7 0
ni_s0_w1_t1_k8 0
ni_s0_w1_t1_k9 0
ni_s0_w1_t2_k0 0
ni_s0_w1_t2_k1 0
ni_s0_w1_t2_k2 0
ni_s0_w1_t2_k3 0
ni_s0_w1_t2_k4 0
ni_s0_w1_t2_k5 0
ni_s0_w1_t2_k6 0
ni_s0_w1_t2_k7 0
ni_s0_w1_t2_k8 0
ni_s0_w1_t2_k9 0
ni_s0_w1_t3_k0 0
ni_s0_w1_t3_k1 0
ni_s0_w1_t3_k2 0
ni_s0_w1_t3_k3 0
ni_s0_w1_t3_k4 0
ni_s0_w1_t3_k5 0
ni_s0_w1_t3_k6 0
ni_s0_w1_t3_k7 0
ni_s0_w1_t3_k8 0
ni_s0_w1_t3_k9 0
ni_s0_w1_t4_k0 0
ni_s0_w1_t4_k1 0
ni_s0_w1_t4_k2 0
ni_s0_w1_t4_k3 0
ni_s0_w1_t4_k4 0
ni_s0_w1_t4_k5 0
ni_s0_w1_t4_k6 0
ni_s0_w1_t4_k7 0
ni_s0_w1_t4_k8 0
ni_s0_w1_t4_k9 0
ni_s0_w1_t5_k0 0
ni_s0_w1_t5_k1 0
ni_s0_w1_t5_k2 0
ni_s0_w1_t5_k3 0
ni_s0_w1_t5_k4 0
ni_s0_w1_t5_k5 0
ni_s0_w1_t5_k6 0
ni_s0_w1_t5_k7 0
ni_s0_w1_t5_k8 0
ni_s0_w1_t5_k9 0
ni_s0_w1_t6_k0 0
ni_s0_w1_t6_k1 0
ni_s0_w1_t6_k2 0
ni_s0_w1_t6_k3 0
ni_s0_w1_t6_k4 0
ni_s0_w1_t6_k5 27
ni_s0_w1_t6_k6 6
ni_s0_w1_t6_k7 13
ni_s0_w1_t6_k8 0
ni_s0_w1_t6_k9 0
ni_s0_w2_t0_k0 0
ni_s0_w2_t0_k1 0
ni_s0_w2_t0_k2 0
ni_s0_w2_t0_k3 0
ni_s0_w2_t0_k4 0
ni_s0_w2_t0_k5 0
ni_s0_w2_t0_k6 0
ni_s0_w2_t0_k7 0
ni_s0_w2_t0_k8 0
ni_s0_w2_t0_k9 0
ni_s0_w2_t1_k0 0
ni_s0_w2_t1_k1 0
ni_s0_w2_t1_k2 11
ni_s0_w2_t1_k3 0
ni_s0_w2_t1_k4 0
ni_s0_w2_t1_k5 0
ni_s0_w2_t1_k6 0
ni_s0_w2_t1_k7 0
ni_s0_w2_t1_k8 0
ni_s0_w2_t1_k9 0
ni_s0_w2_t2_k0 0
ni_s0_w2_t2_k1 0
ni_s0_w2_t2_k2 0
ni_s0_w2_t2_k3 0
ni_s0_w2_t2_k4 0
ni_s0_w2_t2_k5 0
ni_s0_w2_t2_k6 0
ni_s0_w2_t2_k7 0
ni_s0_w2_t2_k8 0
ni_s0_w2_t2_k9 0
ni_s0_w2_t3_k0 0
ni_s0_w2_t3_k1 0
ni_s0_w2_t3_k2 0
ni_s0_w2_t3_k3 0
ni_s0_w2_t3_k4 0
ni_s0_w2_t3_k5 0
ni_s0_w2_t3_k6 0
ni_s0_w2_t3_k7 0
ni_s0_w2_t3_k8 0
ni_s0_w2_t3_k9 0
ni_s0_w2_t4_k0 0
ni_s0_w2_t4_k1 0
ni_s0_w2_t4_k2 0
ni_s0_w2_t4_k3 0
ni_s0_w2_t4_k4 0
ni_s0_w2_t4_k5 0
ni_s0_w2_t4_k6 0
ni_s0_w2_t4_k7 0
ni_s0_w2_t4_k8 0
ni_s0_w2_t4_k9 0
ni_s0_w2_t5_k0 0
ni_s0_w2_t5_k1 0
ni_s0_w2_t5_k2 0
ni_s0_w2_t5_k3 0
ni_s0_w2_t5_k4 0
ni_s0_w2_t5_k5 0
ni_s0_w2_t5_k6 0
ni_s0_w2_t5_k7 0
ni_s0_w2_t5_k8 0
ni_s0_w2_t5_k9 0
ni_s0_w2_t6_k0 0
ni_s0_w2_t6_k1 0
ni_s0_w2_t6_k2 0
ni_s0_w2_t6_k3 0
ni_s0_w2_t6_k4 0
ni_s0_w2_t6_k5 0
ni_s0_w2_t6_k6 0
ni_s0_w2_t6_k7 0
ni_s0_w2_t6_k8 0
ni_s0_w2_t6_k9 17
ni_s1_w0_t0_k0 0
ni_s1_w0_t0_k1 0
ni_s1_w0_t0_k2 0
ni_s1_w0_t0_k3 0
ni_s1_w0_t0_k4 0
ni_s1_w0_t0_k5 0
ni_s1_w0_t0_k6 0
ni_s1_w0_t0_k7 0
ni_s1_w0_t0_k8 0
ni_s1_w0_t0_k9 0
ni_s1_w0_t1_k0 1
ni_s1_w0_t1_k1 0
ni_s1_w0_t1_k2 0
ni_s1_w0_t1_k3 0
ni_s1_w0_t1_k4 0
ni_s1_w0_t1_k5 0
ni_s1_w0_t1_k6 0
ni_s1_w0_t1_k7 0
ni_s1_w0_t1_k8 0
ni_s1_w0_t1_k9 0
ni_s1_w0_t2_k0 3
ni_s1_w0_t2_k1 1
ni_s1_w0_t2_k2 0
ni_s1_w0_t2_k3 131
ni_s1_w0_t2_k4 69
ni_s1_w0_t2_k5 0
ni_s1_w0_t2_k6 0
ni_s1_w0_t2_k7 0
ni_s1_w0_t2_k8 17
ni_s1_w0_t2_k9 0
ni_s1_w0_t3_k0 0
ni_s1_w0_t3_k1 0
ni_s1_w0_t3_k2 0
ni_s1_w0_t3_k3 0
ni_s1_w0_t3_k4 0
ni_s1_w0_t3_k5 0
ni_s1_w0_t3_k6 0
ni_s1_w0_t3_k7 0
ni_s1_w0_t3_k8 0
ni_s1_w0_t3_k9 0
ni_s1_w0_t4_k0 0
ni_s1_w0_t4_k1 0
ni_s1_w0_t4_k2 0
ni_s1_w0_t4_k3 0
ni_s1_w0_t4_k4 0
ni_s1_w0_t4_k5 0
ni_s1_w0_t4_k6 0
ni_s1_w0_t4_k7 0
ni_s1_w0_t4_k8 0
ni_s1_w0_t4_k9 0
ni_s1_w0_t5_k0 22
ni_s1_w0_t5_k1 9
ni_s1_w0_t5_k2 0
ni_s1_w0_t5_k3 43
ni_s1_w0_t5_k4 84
ni_s1_w0_t5_k5 0
ni_s1_w0_t5_k6 0
ni_s1_w0_t5_k7 0
ni_s1_w0_t5_k8 0
ni_s1_w0_t5_k9 0
ni_s1_w0_t6_k0 0
ni_s1_w0_t6_k1 0
ni_s1_w0_t6_k2 0
ni_s1_w0_t6_k3 0
ni_s1_w0_t6_k4 0
ni_s1_w0_t6_k5 0
ni_s1_w0_t6_k6 0
ni_s1_w0_t6_k7 0
ni_s1_w0_t6_k8 8
ni_s1_w0_t6_k9 0
ni_s1_w1_t0_k0 0
ni_s1_w1_t0_k1 0
ni_s1_w1_t0_k2 0
ni_s1_w1_t0_k3 0
ni_s1_w1_t0_k4 0
ni_s1_w1_t0_k5 0
ni_s1_w1_t0_k6 0
ni_s1_w1_t0_k7 0
ni_s1_w1_t0_k8 0
ni_s1_w1_t0_k9 0
ni_s1_w1_t1_k0 0
ni_s1_w1_t1_k1 0
ni_s1_w1_t1_k2 0
ni_s1_w1_t1_k3 0
ni_s1_w1_t1_k4 0
ni_s1_w1_t1_k5 0
ni_s1_w1_t1_k6 0
ni_s1_w1_t1_k7 0
ni_s1_w1_t1_k8 0
ni_s1_w1_t1_k9 0
ni_s1_w1_t2_k0 0
ni_s1_w1_t2_k1 0
ni_s1_w1_t2_k2 0
ni_s1_w1_t2_k3 0
ni_s1_w1_t2_k4 0
ni_s1_w1_t2_k5 172
ni_s1_w1_t2_k6 27
ni_s1_w1_t2_k7 0
ni_s1_w1_t2_k8 0
ni_s1_w1_t2_k9 0
ni_s1_w1_t3_k0 0
ni_s1_w1_t3_k1 0
ni_s1_w1_t3_k2 0
ni_s1_w1_t3_k3 0
ni_s1_w1_t3_k4 0
ni_s1_w1_t3_k5 0
ni_s1_w1_t3_k6 0
ni_s1_w1_t3_k7 0
ni_s1_w1_t3_k8 0
ni_s1_w1_t3_k9 0
ni_s1_w1_t4_k0 0
ni_s1_w1_t4_k1 0
ni_s1_w1_t4_k2 0
ni_s1_w1_t4_k3 0
ni_s1_w1_t4_k4 0
ni_s1_w1_t4_k5 0
ni_s1_w1_t4_k6 0
ni_s1_w1_t4_k7 0
ni_s1_w1_t4_k8 0
ni_s1_w1_t4_k9 0
ni_s1_w1_t5_k0 0
ni_s1_w1_t5_k1 0
ni_s1_w1_t5_k2 0
ni_s1_w1_t5_k3 0
ni_s1_w1_t5_k4 0
ni_s1_w1_t5_k5 0
ni_s1_w1_t5_k6 0
ni_s1_w1_t5_k7 0
ni_s1_w1_t5_k8 0
ni_s1_w1_t5_k9 0
ni_s1_w1_t6_k0 0
ni_s1_w1_t6_k1 0
ni_s1_w1_t6_k2 0
ni_s1_w1_t6_k3 0
ni_s1_w1_t6_k4 0
ni_s1_w1_t6_k5 0
ni_s1_w1_t6_k6 0
ni_s1_w1_t6_k7 13
ni_s1_w1_t6_k8 0
ni_s1_w1_t6_k9 0
ni_s1_w2_t0_k0 0
ni_s1_w2_t0_k1 0
ni_s1_w2_t0_k2 0
ni_s1_w2_t0_k3 0
ni_s1_w2_t0_k4 0
ni_s1_w2_t0_k5 0
ni_s1_w2_t0_k6 0
ni_s1_w2_t0_k7 0
ni_s1_w2_t0_k8 0
ni_s1_w2_t0_k9 0
ni_s1_w2_t1_k0 0
ni_s1_w2_t1_k1 0
ni_s1_w2_t1_k2 2
ni_s1_w2_t1_k3 0
ni_s1_w2_t1_k4 0
ni_s1_w2_t1_k5 0
ni_s1_w2_t1_k6 0
ni_s1_w2_t1_k7 0
ni_s1_w2_t1_k8 0
ni_s1_w2_t1_k9 11
ni_s1_w2_t2_k0 0
ni_s1_w2_t2_k1 0
ni_s1_w2_t2_k2 0
ni_s1_w2_t2_k3 0
ni_s1_w2_t2_k4 0
ni_s1_w2_t2_k5 0
ni_s1_w2_t2_k6 0
ni_s1_w2_t2_k7 0
ni_s1_w2_t2_k8 0
ni_s1_w2_t2_k9 0
ni_s1_w2_t3_k0 0
ni_s1_w2_t3_k1 0
ni_s1_w2_t3_k2 0
ni_s1_w2_t3_k3 0
ni_s1_w2_t3_k4 0
ni_s1_w2_t3_k5 0
ni_s1_w2_t3_k6 0
ni_s1_w2_t3_k7 0
ni_s1_w2_t3_k8 0
ni_s1_w2_t3_k9 0
ni_s1_w2_t4_k0 0
ni_s1_w2_t4_k1 0
ni_s1_w2_t4_k2 0
ni_s1_w2_t4_k3 0
ni_s1_w2_t4_k4 0
ni_s1_w2_t4_k5 0
ni_s1_w2_t4_k6 0
ni_s1_w2_t4_k7 0
ni_s1_w2_t4_k8 0
ni_s1_w2_t4_k9 0
ni_s1_w2_t5_k0 0
ni_s1_w2_t5_k1 0
ni_s1_w2_t5_k2 0
ni_s1_w2_t5_k3 0
ni_s1_w2_t5_k4 0
ni_s1_w2_t5_k5 0
ni_s1_w2_t5_k6 0
ni_s1_w2_t5_k7 0
ni_s1_w2_t5_k8 0
ni_s1_w2_t5_k9 0
ni_s1_w2_t6_k0 0
ni_s1_w2_t6_k1 0
ni_s1_w2_t6_k2 9
ni_s1_w2_t6_k3 0
ni_s1_w2_t6_k4 0
ni_s1_w2_t6_k5 0
ni_s1_w2_t6_k6 0
ni_s1_w2_t6_k7 0
ni_s1_w2_t6_k8 0
ni_s1_w2_t6_k9 6
nb_s0_w0_t0_k0 0
nb_s0_w0_t0_k1 1
nb_s0_w0_t0_k2 0
nb_s0_w0_t0_k3 0
nb_s0_w0_t0_k4 1
nb_s0_w0_t0_k5 0
nb_s0_w0_t0_k6 0
nb_s0_w0_t0_k7 0
nb_s0_w0_t0_k8 1
nb_s0_w0_t0_k9 0
nb_s0_w0_t1_k0 0
nb_s0_w0_t1_k1 0
nb_s0_w0_t1_k2 0
nb_s0_w0_t1_k3 0
nb_s0_w0_t1_k4 0
nb_s0_w0_t1_k5 0
nb_s0_w0_t1_k6 0
nb_s0_w0_t1_k7 0
nb_s0_w0_t1_k8 0
nb_s0_w0_t1_k9 0
nb_s0_w0_t2_k0 0
nb_s0_w0_t2_k1 0
nb_s0_w0_t2_k2 0
nb_s0_w0_t2_k3 0
nb_s0_w0_t2_k4 0
nb_s0_w0_t2_k5 0
nb_s0_w0_t2_k6 0
nb_s0_w0_t2_k7 0
nb_s0_w0_t2_k8 0
nb_s0_w0_t2_k9 0
nb_s0_w0_t3_k0 0
nb_s0_w0_t3_k1 0
nb_s0_w0_t3_k2 0
nb_s0_w0_t3_k3 0
nb_s0_w0_t3_k4 0
nb_s0_w0_t3_k5 0
nb_s0_w0_t3_k6 0
nb_s0_w0_t3_k7 0
nb_s0_w0_t3_k8 0
nb_s0_w0_t3_k9 0
nb_s0_w0_t4_k0 0
nb_s0_w0_t4_k1 0
nb_s0_w0_t4_k2 0
nb_s0_w0_t4_k3 0
nb_s0_w0_t4_k4 0
nb_s0_w0_t4_k5 0
nb_s0_w0_t4_k6 0
nb_s0_w0_t4_k7 0
nb_s0_w0_t4_k8 0
nb_s0_w0_t4_k9 0
nb_s0_w0_t5_k0 0
nb_s0_w0_t5_k1 0
nb_s0_w0_t5_k2 0
nb_s0_w0_t5_k3 0
nb_s0_w0_t5_k4 0
nb_s0_w0_t5_k5 0
nb_s0_w0_t5_k6 0
nb_s0_w0_t5_k7 0
nb_s0_w0_t5_k8 0
nb_s0_w0_t5_k9 0
nb_s0_w0_t6_k0 0
nb_s0_w0_t6_k1 0
nb_s0_w0_t6_k2 0
nb_s0_w0_t6_k3 0
nb_s0_w0_t6_k4 0
nb_s0_w0_t6_k5 0
nb_s0_w0_t6_k6 0
nb_s0_w0_t6_k7 0
nb_s0_w0_t6_k8 0
nb_s0_w0_t6_k9 0
nb_s0_w1_t0_k0 0
nb_s0_w1_t0_k1 0
nb_s0_w1_t0_k2 0
nb_s0_w1_t0_k3 0
nb_s0_w1_t0_k4 0
nb_s0_w1_t0_k5 0
nb_s0_w1_t0_k6 0
nb_s0_w1_t0_k7 0
nb_s0_w1_t0_k8 0
nb_s0_w1_t0_k9 0
nb_s0_w1_t1_k0 0
nb_s0_w1_t1_k1 0
nb_s0_w1_t1_k2 0
nb_s0_w1_t1_k3 0
nb_s0_w1_t1_k4 0
nb_s0_w1_t1_k5 1
nb_s0_w1_t1_k6 1
nb_s0_w1_t1_k7 0
nb_s0_w1_t1_k8 0
nb_s0_w1_t1_k9 0
nb_s0_w1_t2_k0 0
nb_s0_w1_t2_k1 0
nb_s0_w1_t2_k2 0
nb_s0_w1_t2_k3 0
nb_s0_w1_t2_k4 0
nb_s0_w1_t2_k5 0
nb_s0_w1_t2_k6 0
nb_s0_w1_t2_k7 0
nb_s0_w1_t2_k8 0
nb_s0_w1_t2_k9 0
nb_s0_w1_t3_k0 0
nb_s0_w1_t3_k1 0
nb_s0_w1_t3_k2 0
nb_s0_w1_t3_k3 0
nb_s0_w1_t3_k4 0
nb_s0_w1_t3_k5 0
nb_s0_w1_t3_k6 0
nb_s0_w1_t3_k7 0
nb_s0_w1_t3_k8 0
nb_s0_w1_t3_k9 0
nb_s0_w1_t4_k0 0
nb_s0_w1_t4_k1 0
nb_s0_w1_t4_k2 0
nb_s0_w1_t4_k3 0
nb_s0_w1_t4_k4 0
nb_s0_w1_t4_k5 0
nb_s0_w1_t4_k6 0
nb_s0_w1_t4_k7 0
nb_s0_w1_t4_k8 0
nb_s0_w1_t4_k9 0
nb_s0_w1_t5_k0 0
nb_s0_w1_t5_k1 0
nb_s0_w1_t5_k2 0
nb_s0_w1_t5_k3 0
nb_s0_w1_t5_k4 0
nb_s0_w1_t5_k5 0
nb_s0_w1_t5_k6 0
nb_s0_w1_t5_k7 0
nb_s0_w1_t5_k8 0
nb_s0_w1_t5_k9 0
nb_s0_w1_t6_k0 0
nb_s0_w1_t6_k1 0
nb_s0_w1_t6_k2 0
nb_s0_w1_t6_k3 0
nb_s0_w1_t6_k4 0
nb_s0_w1_t6_k5 0
nb_s0_w1_t6_k6 0
nb_s0_w1_t6_k7 0
nb_s0_w1_t6_k8 0
nb_s0_w1_t6_k9 0
nb_s0_w2_t0_k0 0
nb_s0_w2_t0_k1 0
nb_s0_w2_t0_k2 0
nb_s0_w2_t0_k3 0
nb_s0_w2_t0_k4 0
nb_s0_w2_t0_k5 0
nb_s0_w2_t0_k6 0
nb_s0_w2_t0_k7 0
nb_s0_w2_t0_k8 0
nb_s0_w2_t0_k9 0
nb_s0_w2_t1_k0 0
nb_s0_w2_t1_k1 0
nb_s0_w2_t1_k2 0
nb_s0_w2_t1_k3 0
nb_s0_w2_t1_k4 0
nb_s0_w2_t1_k5 0
nb_s0_w2_t1_k6 0
nb_s0_w2_t1_k7 0
nb_s0_w2_t1_k8 0
nb_s0_w2_t1_k9 0
nb_s0_w2_t2_k0 0
nb_s0_w2_t2_k1 0
nb_s0_w2_t2_k2 0
nb_s0_w2_t2_k3 0
nb_s0_w2_t2_k4 0
nb_s0_w2_t2_k5 0
nb_s0_w2_t2_k6 0
nb_s0_w2_t2_k7 0
nb_s0_w2_t2_k8 0
nb_s0_w2_t2_k9 0
nb_s0_w2_t3_k0 0
nb_s0_w2_t3_k1 0
nb_s0_w2_t3_k2 0
nb_s0_w2_t3_k3 0
nb_s0_w2_t3_k4 0
nb_s0_w2_t3_k5 0
nb_s0_w2_t3_k6 0
nb_s0_w2_t3_k7 0
nb_s0_w2_t3_k8 0
nb_s0_w2_t3_k9 0
nb_s0_w2_t4_k0 0
nb_s0_w2_t4_k1 0
nb_s0_w2_t4_k2 0
nb_s0_w2_t4_k3 0
nb_s0_w2_t4_k4 0
nb_s0_w2_t4_k5 0
nb_s0_w2_t4_k6 0
nb_s0_w2_t4_k7 0
nb_s0_w2_t4_k8 0
nb_s0_w2_t4_k9 0
nb_s0_w2_t5_k0 0
nb_s0_w2_t5_k1 0
nb_s0_w2_t5_k2 0
nb_s0_w2_t5_k3 0
nb_s0_w2_t5_k4 0
nb_s0_w2_t5_k5 0
nb_s0_w2_t5_k6 0
nb_s0_w2_t5_k7 0
nb_s0_w2_t5_k8 0
nb_s0_w2_t5_k9 0
nb_s0_w2_t6_k0 0
nb_s0_w2_t6_k1 0
nb_s0_w2_t6_k2 0
nb_s0_w2_t6_k3 0
nb_s0_w2_t6_k4 0
nb_s0_w2_t6_k5 0
nb_s0_w2_t6_k6 0
nb_s0_w2_t6_k7 0
nb_s0_w2_t6_k8 0
nb_s0_w2_t6_k9 0
nb_s1_w0_t0_k0 0
nb_s1_w0_t0_k1 0
nb_s1_w0_t0_k2 0
nb_s1_w0_t0_k3 0
nb_s1_w0_t0_k4 0
nb_s1_w0_t0_k5 0
nb_s1_w0_t0_k6 0
nb_s1_w0_t0_k7 0
nb_s1_w0_t0_k8 0
nb_s1_w0_t0_k9 0
nb_s1_w0_t1_k0 1
nb_s1_w0_t1_k1 0
nb_s1_w0_t1_k2 0
nb_s1_w0_t1_k3 0
nb_s1_w0_t1_k4 0
nb_s1_w0_t1_k5 0
nb_s1_w0_t1_k6 0
nb_s1_w0_t1_k7 0
nb_s1_w0_t1_k8 0
nb_s1_w0_t1_k9 0
nb_s1_w0_t2_k0 0
nb_s1_w0_t2_k1 1
nb_s1_w0_t2_k2 0
nb_s1_w0_t2_k3 1
nb_s1_w0_t2_k4 0
nb_s1_w0_t2_k5 0
nb_s1_w0_t2_k6 0
nb_s1_w0_t2_k7 0
nb_s1_w0_t2_k8 1
nb_s1_w0_t2_k9 0
nb_s1_w0_t3_k0 0
nb_s1_w0_t3_k1 0
nb_s1_w0_t3_k2 0
nb_s1_w0_t3_k3 0
nb_s1_w0_t3_k4 0
nb_s1_w0_t3_k5 0
nb_s1_w0_t3_k6 0
nb_s1_w0_t3_k7 0
nb_s1_w0_t3_k8 0
nb_s1_w0_t3_k9 0
nb_s1_w0_t4_k0 0
nb_s1_w0_t4_k1 0
nb_s1_w0_t4_k2 0
nb_s1_w0_t4_k3 0
nb_s1_w0_t4_k4 0
nb_s1_w0_t4_k5 0
nb_s1_w0_t4_k6 0
nb_s1_w0_t4_k7 0
nb_s1_w0_t4_k8 0
nb_s1_w0_t4_k9 0
nb_s1_w0_t5_k0 0
nb_s1_w0_t5_k1 0
nb_s1_w0_t5_k2 0
nb_s1_w0_t5_k3 0
nb_s1_w0_t5_k4 1
nb_s1_w0_t5_k5 0
nb_s1_w0_t5_k6 0
nb_s1_w0_t5_k7 0
nb_s1_w0_t5_k8 0
nb_s1_w0_t5_k9 0
nb_s1_w0_t6_k0 0
nb_s1_w0_t6_k1 0
nb_s1_w0_t6_k2 0
nb_s1_w0_t6_k3 0
nb_s1_w0_t6_k4 0
nb_s1_w0_t6_k5 0
nb_s1_w0_t6_k6 0
nb_s1_w0_t6_k7 0
nb_s1_w0_t6_k8 0
nb_s1_w0_t6_k9 0
nb_s1_w1_t0_k0 0
nb_s1_w1_t0_k1 0
nb_s1_w1_t0_k2 0
nb_s1_w1_t0_k3 0
nb_s1_w1_t0_k4 0
nb_s1_w1_t0_k5 0
nb_s1_w1_t0_k6 0
nb_s1_w1_t0_k7 0
nb_s1_w1_t0_k8 0
nb_s1_w1_t0_k9 0
nb_s1_w1_t1_k0 0
nb_s1_w1_t1_k1 0
nb_s1_w1_t1_k2 0
nb_s1_w1_t1_k3 0
nb_s1_w1_t1_k4 0
nb_s1_w1_t1_k5 0
nb_s1_w1_t1_k6 0
nb_s1_w1_t1_k7 0
nb_s1_w1_t1_k8 0
nb_s1_w1_t1_k9 0
nb_s1_w1_t2_k0 0
nb_s1_w1_t2_k1 0
nb_s1_w1_t2_k2 0
nb_s1_w1_t2_k3 0
nb_s1_w1_t2_k4 0
nb_s1_w1_t2_k5 0
nb_s1_w1_t2_k6 0
nb_s1_w1_t2_k7 0
nb_s1_w1_t2_k8 0
nb_s1_w1_t2_k9 0
nb_s1_w1_t3_k0 0
nb_s1_w1_t3_k1 0
nb_s1_w1_t3_k2 0
nb_s1_w1_t3_k3 0
nb_s1_w1_t3_k4 0
nb_s1_w1_t3_k5 0
nb_s1_w1_t3_k6 0
nb_s1_w1_t3_k7 0
nb_s1_w1_t3_k8 0
nb_s1_w1_t3_k9 0
nb_s1_w1_t4_k0 0
nb_s1_w1_t4_k1 0
nb_s1_w1_t4_k2 0
nb_s1_w1_t4_k3 0
nb_s1_w1_t4_k4 0
nb_s1_w1_t4_k5 0
nb_s1_w1_t4_k6 0
nb_s1_w1_t4_k7 0
nb_s1_w1_t4_k8 0
nb_s1_w1_t4_k9 0
nb_s1_w1_t5_k0 0
nb_s1_w1_t5_k1 0
nb_s1_w1_t5_k2 0
nb_s1_w1_t5_k3 0
nb_s1_w1_t5_k4 0
nb_s1_w1_t5_k5 0
nb_s1_w1_t5_k6 0
nb_s1_w1_t5_k7 0
nb_s1_w1_t5_k8 0
nb_s1_w1_t5_k9 0
nb_s1_w1_t6_k0 0
nb_s1_w1_t6_k1 0
nb_s1_w1_t6_k2 0
nb_s1_w1_t6_k3 0
nb_s1_w1_t6_k4 0
nb_s1_w1_t6_k5 0
nb_s1_w1_t6_k6 0
nb_s1_w1_t6_k7 0
nb_s1_w1_t6_k8 0
nb_s1_w1_t6_k9 0
nb_s1_w2_t0_k0 0
nb_s1_w2_t0_k1 0
nb_s1_w2_t0_k2 0
nb_s1_w2_t0_k3 0
nb_s1_w2_t0_k4 0
nb_s1_w2_t0_k5 0
nb_s1_w2_t0_k6 0
nb_s1_w2_t0_k7 0
nb_s1_w2_t0_k8 0
nb_s1_w2_t0_k9 0
nb_s1_w2_t1_k0 0
nb_s1_w2_t1_k1 0
nb_s1_w2_t1_k2 1
nb_s1_w2_t1_k3 0
nb_s1_w2_t1_k4 0
nb_s1_w2_t1_k5 0
nb_s1_w2_t1_k6 0
nb_s1_w2_t1_k7 0
nb_s1_w2_t1_k8 0
nb_s1_w2_t1_k9 1
nb_s1_w2_t2_k0 0
nb_s1_w2_t2_k1 0
nb_s1_w2_t2_k2 0
nb_s1_w2_t2_k3 0
nb_s1_w2_t2_k4 0
nb_s1_w2_t2_k5 0
nb_s1_w2_t2_k6 0
nb_s1_w2_t2_k7 0
nb_s1_w2_t2_k8 0
nb_s1_w2_t2_k9 0
nb_s1_w2_t3_k0 0
nb_s1_w2_t3_k1 0
nb_s1_w2_t3_k2 0
nb_s1_w2_t3_k3 0
nb_s1_w2_t3_k4 0
nb_s1_w2_t3_k5 0
nb_s1_w2_t3_k6 0
nb_s1_w2_t3_k7 0
nb_s1_w2_t3_k8 0
nb_s1_w2_t3_k9 0
nb_s1_w2_t4_k0 0
nb_s1_w2_t4_k1 0
nb_s1_w2_t4_k2 0
nb_s1_w2_t4_k3 0
nb_s1_w2_t4_k4 0
nb_s1_w2_t4_k5 0
nb_s1_w2_t4_k6 0
nb_s1_w2_t4_k7 0
nb_s1_w2_t4_k8 0
nb_s1_w2_t4_k9 0
nb_s1_w2_t5_k0 0
nb_s1_w2_t5_k1 0
nb_s1_w2_t5_k2 0
nb_s1_w2_t5_k3 0
nb_s1_w2_t5_k4 0
nb_s1_w2_t5_k5 0
nb_s1_w2_t5_k6 0
nb_s1_w2_t5_k7 0
nb_s1_w2_t5_k8 0
nb_s1_w2_t5_k9 0
nb_s1_w2_t6_k0 0
nb_s1_w2_t6_k1 0
nb_s1_w2_t6_k2 0
nb_s1_w2_t6_k3 0
nb_s1_w2_t6_k4 0
nb_s1_w2_t6_k5 0
nb_s1_w2_t6_k6 0
nb_s1_w2_t6_k7 0
nb_s1_w2_t6_k8 0
nb_s1_w2_t6_k9 0
X(s0,w0,k0,t0) 0
X(s0,w0,k1,t0) 4.7257161034484974e-01
X(s0,w0,k2,t0) 0
X(s0,w0,k3,t0) 0
X(s0,w0,k4,t0) 4.7257161034484974e-01
X(s0,w0,k5,t0) 0
X(s0,w0,k6,t0) 0
X(s0,w0,k7,t0) 0
X(s0,w0,k8,t0) 4.7257161034484785e-01
X(s0,w0,k9,t0) 0
X(s0,w0,k0,t1) 0
X(s0,w0,k1,t1) 0
X(s0,w0,k2,t1) 0
X(s0,w0,k3,t1) 0
X(s0,w0,k4,t1) 0
X(s0,w0,k5,t1) 0
X(s0,w0,k6,t1) 0
X(s0,w0,k7,t1) 0
X(s0,w0,k8,t1) 0
X(s0,w0,k9,t1) 0
X(s0,w0,k0,t2) 0
X(s0,w0,k1,t2) 0
X(s0,w0,k2,t2) 0
X(s0,w0,k3,t2) 0
X(s0,w0,k4,t2) 0
X(s0,w0,k5,t2) 0
X(s0,w0,k6,t2) 0
X(s0,w0,k7,t2) 0
X(s0,w0,k8,t2) 0
X(s0,w0,k9,t2) 0
X(s0,w0,k0,t3) 0
X(s0,w0,k1,t3) 0
X(s0,w0,k2,t3) 0
X(s0,w0,k3,t3) 0
X(s0,w0,k4,t3) 0
X(s0,w0,k5,t3) 0
X(s0,w0,k6,t3) 0
X(s0,w0,k7,t3) 0
X(s0,w0,k8,t3) 0
X(s0,w0,k9,t3) 0
X(s0,w0,k0,t4) 0
X(s0,w0,k1,t4) 0
X(s0,w0,k2,t4) 0
X(s0,w0,k3,t4) 0
X(s0,w0,k4,t4) 0
X(s0,w0,k5,t4) 0
X(s0,w0,k6,t4) 0
X(s0,w0,k7,t4) 0
X(s0,w0,k8,t4) 0
X(s0,w0,k9,t4) 0
X(s0,w0,k0,t5) 0
X(s0,w0,k1,t5) 0
X(s0,w0,k2,t5) 0
X(s0,w0,k3,t5) 0
X(s0,w0,k4,t5) 0
X(s0,w0,k5,t5) 0
X(s0,w0,k6,t5) 0
X(s0,w0,k7,t5) 0
X(s0,w0,k8,t5) 0
X(s0,w0,k9,t5) 0
X(s0,w0,k0,t6) 0
X(s0,w0,k1,t6) 0
X(s0,w0,k2,t6) 0
X(s0,w0,k3,t6) 0
X(s0,w0,k4,t6) 0
X(s0,w0,k5,t6) 0
X(s0,w0,k6,t6) 0
X(s0,w0,k7,t6) 0
X(s0,w0,k8,t6) 0
X(s0,w0,k9,t6) 0
X(s0,w1,k0,t0) 0
X(s0,w1,k1,t0) 0
X(s0,w1,k2,t0) 0
X(s0,w1,k3,t0) 0
X(s0,w1,k4,t0) 0
X(s0,w1,k5,t0) 0
X(s0,w1,k6,t0) 0
X(s0,w1,k7,t0) 0
X(s0,w1,k8,t0) 0
X(s0,w1,k9,t0) 0
X(s0,w1,k0,t1) 0
X(s0,w1,k1,t1) 0
X(s0,w1,k2,t1) 0
X(s0,w1,k3,t1) 0
X(s0,w1,k4,t1) 0
X(s0,w1,k5,t1) 4.7257161034484974e-01
X(s0,w1,k6,t1) 4.7257161034484974e-01
X(s0,w1,k7,t1) 0
X(s0,w1,k8,t1) 0
X(s0,w1,k9,t1) 0
X(s0,w1,k0,t2) 0
X(s0,w1,k1,t2) 0
X(s0,w1,k2,t2) 0
X(s0,w1,k3,t2) 0
X(s0,w1,k4,t2) 0
X(s0,w1,k5,t2) 0
X(s0,w1,k6,t2) 0
X(s0,w1,k7,t2) 0
X(s0,w1,k8,t2) 0
X(s0,w1,k9,t2) 0
X(s0,w1,k0,t3) 0
X(s0,w1,k1,t3) 0
X(s0,w1,k2,t3) 0
X(s0,w1,k3,t3) 0
X(s0,w1,k4,t3) 0
X(s0,w1,k5,t3) 0
X(s0,w1,k6,t3) 0
X(s0,w1,k7,t3) 0
X(s0,w1,k8,t3) 0
X(s0,w1,k9,t3) 0
X(s0,w1,k0,t4) 0
X(s0,w1,k1,t4) 0
X(s0,w1,k2,t4) 0
X(s0,w1,k3,t4) 0
X(s0,w1,k4,t4) 0
X(s0,w1,k5,t4) 0
X(s0,w1,k6,t4) 0
X(s0,w1,k7,t4) 0
X(s0,w1,k8,t4) 0
X(s0,w1,k9,t4) 0
X(s0,w1,k0,t5) 0
X(s0,w1,k1,t5) 0
X(s0,w1,k2,t5) 0
X(s0,w1,k3,t5) 0
X(s0,w1,k4,t5) 0
X(s0,w1,k5,t5) 0
X(s0,w1,k6,t5) 0
X(s0,w1,k7,t5) 0
X(s0,w1,k8,t5) 0
X(s0,w1,k9,t5) 0
X(s0,w1,k0,t6) 0
X(s0,w1,k1,t6) 0
X(s0,w1,k2,t6) 0
X(s0,w1,k3,t6) 0
X(s0,w1,k4,t6) 0
X(s0,w1,k5,t6) 0
X(s0,w1,k6,t6) 0
X(s0,w1,k7,t6) 0
X(s0,w1,k8,t6) 0
X(s0,w1,k9,t6) 0
X(s0,w2,k0,t0) 0
X(s0,w2,k1,t0) 0
X(s0,w2,k2,t0) 0
X(s0,w2,k3,t0) 0
X(s0,w2,k4,t0) 0
X(s0,w2,k5,t0) 0
X(s0,w2,k6,t0) 0
X(s0,w2,k7,t0) 0
X(s0,w2,k8,t0) 0
X(s0,w2,k9,t0) 0
X(s0,w2,k0,t1) 0
X(s0,w2,k1,t1) 0
X(s0,w2,k2,t1) 0
X(s0,w2,k3,t1) 0
X(s0,w2,k4,t1) 0
X(s0,w2,k5,t1) 0
X(s0,w2,k6,t1) 0
X(s0,w2,k7,t1) 0
X(s0,w2,k8,t1) 0
X(s0,w2,k9,t1) 0
X(s0,w2,k0,t2) 0
X(s0,w2,k1,t2) 0
X(s0,w2,k2,t2) 0
X(s0,w2,k3,t2) 0
X(s0,w2,k4,t2) 0
X(s0,w2,k5,t2) 0
X(s0,w2,k6,t2) 0
X(s0,w2,k7,t2) 0
X(s0,w2,k8,t2) 0
X(s0,w2,k9,t2) 0
X(s0,w2,k0,t3) 0
X(s0,w2,k1,t3) 0
X(s0,w2,k2,t3) 0
X(s0,w2,k3,t3) 0
X(s0,w2,k4,t3) 0
X(s0,w2,k5,t3) 0
X(s0,w2,k6,t3) 0
X(s0,w2,k7,t3) 0
X(s0,w2,k8,t3) 0
X(s0,w2,k9,t3) 0
X(s0,w2,k0,t4) 0
X(s0,w2,k1,t4) 0
X(s0,w2,k2,t4) 0
X(s0,w2,k3,t4) 0
X(s0,w2,k4,t4) 0
X(s0,w2,k5,t4) 0
X(s0,w2,k6,t4) 0
X(s0,w2,k7,t4) 0
X(s0,w2,k8,t4) 0
X(s0,w2,k9,t4) 0
X(s0,w2,k0,t5) 0
X(s0,w2,k1,t5) 0
X(s0,w2,k2,t5) 0
X(s0,w2,k3,t5) 0
X(s0,w2,k4,t5) 0
X(s0,w2,k5,t5) 0
X(s0,w2,k6,t5) 0
X(s0,w2,k7,t5) 0
X(s0,w2,k8,t5) 0
X(s0,w2,k9,t5) 0
X(s0,w2,k0,t6) 0
X(s0,w2,k1,t6) 0
X(s0,w2,k2,t6) 0
X(s0,w2,k3,t6) 0
X(s0,w2,k4,t6) 0
X(s0,w2,k5,t6) 0
X(s0,w2,k6,t6) 0
X(s0,w2,k7,t6) 0
X(s0,w2,k8,t6) 0
X(s0,w2,k9,t6) 0
X(s1,w0,k0,t0) 0
X(s1,w0,k1,t0) 0
X(s1,w0,k2,t0) 0
X(s1,w0,k3,t0) 0
X(s1,w0,k4,t0) 0
X(s1,w0,k5,t0) 0
X(s1,w0,k6,t0) 0
X(s1,w0,k7,t0) 0
X(s1,w0,k8,t0) 0
X(s1,w0,k9,t0) 0
X(s1,w0,k0,t1) 5.2742838965515026e-01
X(s1,w0,k1,t1) 0
X(s1,w0,k2,t1) 0
X(s1,w0,k3,t1) 0
X(s1,w0,k4,t1) 0
X(s1,w0,k5,t1) 0
X(s1,w0,k6,t1) 0
X(s1,w0,k7,t1) 0
X(s1,w0,k8,t1) 0
X(s1,w0,k9,t1) 0
X(s1,w0,k0,t2) 0
X(s1,w0,k1,t2) 5.2742838965515026e-01
X(s1,w0,k2,t2) 0
X(s1,w0,k3,t2) 5.2742838965515215e-01
X(s1,w0,k4,t2) 0
X(s1,w0,k5,t2) 0
X(s1,w0,k6,t2) 0
X(s1,w0,k7,t2) 0
X(s1,w0,k8,t2) 5.2742838965515026e-01
X(s1,w0,k9,t2) 0
X(s1,w0,k0,t3) 0
X(s1,w0,k1,t3) 0
X(s1,w0,k2,t3) 0
X(s1,w0,k3,t3) 0
X(s1,w0,k4,t3) 0
X(s1,w0,k5,t3) 0
X(s1,w0,k6,t3) 0
X(s1,w0,k7,t3) 0
X(s1,w0,k8,t3) 0
X(s1,w0,k9,t3) 0
X(s1,w0,k0,t4) 0
X(s1,w0,k1,t4) 0
X(s1,w0,k2,t4) 0
X(s1,w0,k3,t4) 0
X(s1,w0,k4,t4) 0
X(s1,w0,k5,t4) 0
X(s1,w0,k6,t4) 0
X(s1,w0,k7,t4) 0
X(s1,w0,k8,t4) 0
X(s1,w0,k9,t4) 0
X(s1,w0,k0,t5) 0
X(s1,w0,k1,t5) 0
X(s1,w0,k2,t5) 0
X(s1,w0,k3,t5) 0
X(s1,w0,k4,t5) 5.2742838965515026e-01
X(s1,w0,k5,t5) 0
X(s1,w0,k6,t5) 0
X(s1,w0,k7,t5) 0
X(s1,w0,k8,t5) 0
X(s1,w0,k9,t5) 0
X(s1,w0,k0,t6) 0
X(s1,w0,k1,t6) 0
X(s1,w0,k2,t6) 0
X(s1,w0,k3,t6) 0
X(s1,w0,k4,t6) 0
X(s1,w0,k5,t6) 0
X(s1,w0,k6,t6) 0
X(s1,w0,k7,t6) 0
X(s1,w0,k8,t6) 0
X(s1,w0,k9,t6) 0
X(s1,w1,k0,t0) 0
X(s1,w1,k1,t0) 0
X(s1,w1,k2,t0) 0
X(s1,w1,k3,t0) 0
X(s1,w1,k4,t0) 0
X(s1,w1,k5,t0) 0
X(s1,w1,k6,t0) 0
X(s1,w1,k7,t0) 0
X(s1,w1,k8,t0) 0
X(s1,w1,k9,t0) 0
X(s1,w1,k0,t1) 0
X(s1,w1,k1,t1) 0
X(s1,w1,k2,t1) 0
X(s1,w1,k3,t1) 0
X(s1,w1,k4,t1) 0
X(s1,w1,k5,t1) 0
X(s1,w1,k6,t1) 0
X(s1,w1,k7,t1) 0
X(s1,w1,k8,t1) 0
X(s1,w1,k9,t1) 0
X(s1,w1,k0,t2) 0
X(s1,w1,k1,t2) 0
X(s1,w1,k2,t2) 0
X(s1,w1,k3,t2) 0
X(s1,w1,k4,t2) 0
X(s1,w1,k5,t2) 0
X(s1,w1,k6,t2) 0
X(s1,w1,k7,t2) 0
X(s1,w1,k8,t2) 0
X(s1,w1,k9,t2) 0
X(s1,w1,k0,t3) 0
X(s1,w1,k1,t3) 0
X(s1,w1,k2,t3) 0
X(s1,w1,k3,t3) 0
X(s1,w1,k4,t3) 0
X(s1,w1,k5,t3) 0
X(s1,w1,k6,t3) 0
X(s1,w1,k7,t3) 0
X(s1,w1,k8,t3) 0
X(s1,w1,k9,t3) 0
X(s1,w1,k0,t4) 0
X(s1,w1,k1,t4) 0
X(s1,w1,k2,t4) 0
X(s1,w1,k3,t4) 0
X(s1,w1,k4,t4) 0
X(s1,w1,k5,t4) 0
X(s1,w1,k6,t4) 0
X(s1,w1,k7,t4) 0
X(s1,w1,k8,t4) 0
X(s1,w1,k9,t4) 0
X(s1,w1,k0,t5) 0
X(s1,w1,k1,t5) 0
X(s1,w1,k2,t5) 0
X(s1,w1,k3,t5) 0
X(s1,w1,k4,t5) 0
X(s1,w1,k5,t5) 0
X(s1,w1,k6,t5) 0
X(s1,w1,k7,t5) 0
X(s1,w1,k8,t5) 0
X(s1,w1,k9,t5) 0
X(s1,w1,k0,t6) 0
X(s1,w1,k1,t6) 0
X(s1,w1,k2,t6) 0
X(s1,w1,k3,t6) 0
X(s1,w1,k4,t6) 0
X(s1,w1,k5,t6) 0
X(s1,w1,k6,t6) 0
X(s1,w1,k7,t6) 0
X(s1,w1,k8,t6) 0
X(s1,w1,k9,t6) 0
X(s1,w2,k0,t0) 0
X(s1,w2,k1,t0) 0
X(s1,w2,k2,t0) 0
X(s1,w2,k3,t0) 0
X(s1,w2,k4,t0) 0
X(s1,w2,k5,t0) 0
X(s1,w2,k6,t0) 0
X(s1,w2,k7,t0) 0
X(s1,w2,k8,t0) 0
X(s1,w2,k9,t0) 0
X(s1,w2,k0,t1) 0
X(s1,w2,k1,t1) 0
X(s1,w2,k2,t1) 5.2742838965515026e-01
X(s1,w2,k3,t1) 0
X(s1,w2,k4,t1) 0
X(s1,w2,k5,t1) 0
X(s1,w2,k6,t1) 0
X(s1,w2,k7,t1) 0
X(s1,w2,k8,t1) 0
X(s1,w2,k9,t1) 5.2742838965515026e-01
X(s1,w2,k0,t2) 0
X(s1,w2,k1,t2) 0
X(s1,w2,k2,t2) 0
X(s1,w2,k3,t2) 0
X(s1,w2,k4,t2) 0
X(s1,w2,k5,t2) 0
X(s1,w2,k6,t2) 0
X(s1,w2,k7,t2) 0
X(s1,w2,k8,t2) 0
X(s1,w2,k9,t2) 0
X(s1,w2,k0,t3) 0
X(s1,w2,k1,t3) 0
X(s1,w2,k2,t3) 0
X(s1,w2,k3,t3) 0
X(s1,w2,k4,t3) 0
X(s1,w2,k5,t3) 0
X(s1,w2,k6,t3) 0
X(s1,w2,k7,t3) 0
X(s1,w2,k8,t3) 0
X(s1,w2,k9,t3) 0
X(s1,w2,k0,t4) 0
X(s1,w2,k1,t4) 0
X(s1,w2,k2,t4) 0
X(s1,w2,k3,t4) 0
X(s1,w2,k4,t4) 0
X(s1,w2,k5,t4) 0
X(s1,w2,k6,t4) 0
X(s1,w2,k7,t4) 0
X(s1,w2,k8,t4) 0
X(s1,w2,k9,t4) 0
X(s1,w2,k0,t5) 0
X(s1,w2,k1,t5) 0
X(s1,w2,k2,t5) 0
X(s1,w2,k3,t5) 0
X(s1,w2,k4,t5) 0
X(s1,w2,k5,t5) 0
X(s1,w2,k6,t5) 0
X(s1,w2,k7,t5) 0
X(s1,w2,k8,t5) 0
X(s1,w2,k9,t5) 0
X(s1,w2,k0,t6) 0
X(s1,w2,k1,t6) 0
X(s1,w2,k2,t6) 0
X(s1,w2,k3,t6) 0
X(s1,w2,k4,t6) 0
X(s1,w2,k5,t6) 0
X(s1,w2,k6,t6) 0
X(s1,w2,k7,t6) 0
X(s1,w2,k8,t6) 0
X(s1,w2,k9,t6) 0
o_w0_r0 9.4514322068969858e-01
o_w0_r1 3.8856569065516965e+01
o_w0_r2 0
o_w1_r0 9.4514322068969858e-01
o_w1_r1 1.0832459578620985e+02
o_w1_r2 0
o_w2_r0 9.4514322068969858e-01
o_w2_r1 1.0137945256552013e+02
o_w2_r2 0
O_0_w0_r0 2
O_0_w0_r1 32
O_0_w0_r2 0
O_0_w1_r0 9.4514322068969858e-01
O_0_w1_r1 1.8585656906551699e+02
O_0_w1_r2 0
O_0_w2_r0 9.4514322068969858e-01
O_0_w2_r1 101
O_0_w2_r2 0
O_1_w0_r0 0
O_1_w0_r1 45
O_1_w0_r2 0
O_1_w1_r0 9.4514322068969858e-01
O_1_w1_r1 3.8856569065516965e+01
O_1_w1_r2 0
O_1_w2_r0 9.4514322068969858e-01
O_1_w2_r1 103
O_1_w2_r2 0
y_w0_r0 4.7257161034484974e-01
y_w0_r1 5.5274283896551504e+00
y_w0_r2 1
y_w1_r0 0
y_w1_r1 4.7257161034484907e-01
y_w1_r2 5.2742838965514960e-01
y_w2_r0 0
y_w2_r1 1.0000000000000013e+00
y_w2_r2 0
